
#(C) 2017 by FIZ Karlsruhe - Leibniz Institute for Information Infrastructure.  All rights reserved.
data_151317-ICSD
_database_code_ICSD 151317
_audit_creation_date 2006-10-01
_audit_update_record 2008-02-01
_chemical_name_systematic 'Copper diformate - beta'
_chemical_formula_structural 'Cu (H C O O)2'
_chemical_formula_sum 'C2 H2 Cu1 O4'
_exptl_crystal_density_diffrn 2.57
_publ_section_title

;
Ferromagnetism in the alpha and beta polymorphs of anhydrous copper(II)
formate: two molecular-based ferromagnets with ordering temperatures of 8.2
and 30.4 K
;
loop_
_citation_id
_citation_journal_full
_citation_year
_citation_journal_volume
_citation_page_first
_citation_page_last
_citation_journal_id_ASTM
primary 'Inorganic Chemistry' 1993 32 4337 4344 INOCAJ
loop_
_publ_author_name
'Sapina, F.'
'Burgos, M.'
'Escriva, E.'
'Folgado, J.V.'
'Marcos, D.'
'Beltran, A.'
'Beltran, D.'
_cell_length_a 8.187(2)
_cell_length_b 7.922(2)
_cell_length_c 3.616(6)
_cell_angle_alpha 90.
_cell_angle_beta 122.14(2)
_cell_angle_gamma 90.
_cell_volume 198.58
_cell_formula_units_Z 2
_symmetry_space_group_name_H-M 'P 1 21/a 1'
_symmetry_Int_Tables_number 14
_refine_ls_R_factor_all 0.044
loop_
_symmetry_equiv_pos_site_id
_symmetry_equiv_pos_as_xyz
1 'x+1/2, -y+1/2, z'
2 '-x, -y, -z'
3 '-x+1/2, y+1/2, -z'
4 'x, y, z'
loop_
_atom_type_symbol
_atom_type_oxidation_number
Cu2+ 2
C4+ 4
O2- -2
H1- -1
loop_
_atom_site_label
_atom_site_type_symbol
_atom_site_symmetry_multiplicity
_atom_site_Wyckoff_symbol
_atom_site_fract_x
_atom_site_fract_y
_atom_site_fract_z
_atom_site_B_iso_or_equiv
_atom_site_occupancy
_atom_site_attached_hydrogens
Cu1 Cu2+ 2 a 0 0 0 1.21(3) 1. 0
C1 C4+ 4 e 0.2597(3) 0.2638(2) 0.0857(9) 1.15(8) 1. 0
O1 O2- 4 e 0.1718(2) -0.0895(2) -0.1757(4) 1.68(6) 1. 0
O2 O2- 4 e 0.1284(2) 0.2186(2) 0.1401(5) 2.01(7) 1. 0
#End of TTdata_151317-ICSD