
#(C) 2017 by FIZ Karlsruhe - Leibniz Institute for Information Infrastructure.  All rights reserved.
data_173716-ICSD
_database_code_ICSD 173716
_audit_creation_date 2009-08-01
_chemical_name_systematic 'Diaquairon(II) bis(dicyanoaurate(I))'
_chemical_formula_structural 'Fe (O H2)2 (Au (C N)2)2'
_chemical_formula_sum 'C4 H4 Au2 Fe1 N4 O2'
_chemical_name_structure_type Co(H2O)2Au2(CN)4
_exptl_crystal_density_diffrn 4.25
_publ_section_title

;
Magnetic frustration and spin disorder in isostructural M(mu-O H2)2 [Au (C
N)2]2 (M = Mn, Fe, Co) coordination polymers containing double aqua-bridged
chains: SQUID and mueSR studies
;
loop_
_citation_id
_citation_journal_full
_citation_year
_citation_journal_volume
_citation_page_first
_citation_page_last
_citation_journal_id_ASTM
primary 'Inorganic Chemistry' 2009 48 55 67 INOCAJ
loop_
_publ_author_name
'Lefebvre, J.'
'Tyagi, P.'
'Trudel, S.'
'Pacradouni, V.'
'Kaiser, C.'
'Sonier, J.E.'
'Leznoff, D.B.'
_cell_length_a 6.43
_cell_length_b 20.67
_cell_length_c 3.47
_cell_angle_alpha 90
_cell_angle_beta 90.68
_cell_angle_gamma 90
_cell_volume 461.16
_cell_formula_units_Z 2
_symmetry_space_group_name_H-M 'P 1 2/m 1'
_symmetry_Int_Tables_number 10
loop_
_symmetry_equiv_pos_site_id
_symmetry_equiv_pos_as_xyz
1 '-x, y, -z'
2 '-x, -y, -z'
3 'x, -y, z'
4 'x, y, z'
loop_
_atom_type_symbol
_atom_type_oxidation_number
Au1+ 1
Fe2+ 2
C2+ 2
N3- -3
C2+ 2
N3- -3
C2+ 2
N3- -3
C2+ 2
N3- -3
O2- -2
H1+ 1
loop_
_atom_site_label
_atom_site_type_symbol
_atom_site_symmetry_multiplicity
_atom_site_Wyckoff_symbol
_atom_site_fract_x
_atom_site_fract_y
_atom_site_fract_z
_atom_site_B_iso_or_equiv
_atom_site_occupancy
_atom_site_attached_hydrogens
Au1 Au1+ 2 i 0 0.2456 0 . 1. 0
Au2 Au1+ 2 l 0.5 0.251 0.5 . 1. 0
Fe1 Fe2+ 1 a 0 0 0 . 1. 0
Fe2 Fe2+ 1 h 0.5 0.5 0.5 . 1. 0
C1 C2+ 2 i 0 0.8475 0 . 1. 0
N1 N3- 2 i 0 0.0972 0 . 1. 0
C2 C2+ 2 i 0 0.6524 0 . 1. 0
N2 N3- 2 i 0 0.5972 0 . 1. 0
C3 C2+ 2 l 0.5 0.1525 0.5 . 1. 0
N3 N3- 2 l 0.5 0.0972 0.5 . 1. 0
C4 C2+ 2 l 0.5 0.6524 0.5 . 1. 0
N4 N3- 2 l 0.5 0.5972 0.5 . 1. 0
O1 O2- 2 m 0.2193 0 0.5 . 1. 0
O2 O2- 2 n 0.7193 0.5 0 . 1. 0
#End of TTdata_173716-ICSD