
#(C) 2017 by FIZ Karlsruhe - Leibniz Institute for Information Infrastructure.  All rights reserved.
data_41244-ICSD
_database_code_ICSD 41244
_audit_creation_date 1999-11-30
_audit_update_record 2003-04-01
_chemical_name_systematic 'Copper(I) methylthiolate'
_chemical_formula_structural '(Cu (C H3 S))'
_chemical_formula_sum 'C1 H3 Cu1 S1'
_exptl_crystal_density_diffrn 2.57
_publ_section_title

;
Synthesis, characterization, and crystal structure of three homoleptic
copper(I) thiolates: (Cu (C H3 S-)), ((C6 H5)4 P+)2 (Cu5 (C H3 S-)7) * C2 H6
O2, and ((C3 H7)4 N+)2 (Cu4 (C H3 S-)6)*CH4O
;
loop_
_citation_id
_citation_journal_full
_citation_year
_citation_journal_volume
_citation_page_first
_citation_page_last
_citation_journal_id_ASTM
primary 'Journal of Solid State Chemistry' 1993 107 63 75 JSSCBI
loop_
_publ_author_name
'Baumgartner, M.'
'Schmalle, H.W.'
'Baerlocher, C.'
_cell_length_a 8.4488(2)
_cell_length_b 8.4488(2)
_cell_length_c 4.0059(2)
_cell_angle_alpha 90.
_cell_angle_beta 90.
_cell_angle_gamma 90.
_cell_volume 285.95
_cell_formula_units_Z 4
_symmetry_space_group_name_H-M 'P 42/m'
_symmetry_Int_Tables_number 84
_refine_ls_R_factor_all 0.073
loop_
_symmetry_equiv_pos_site_id
_symmetry_equiv_pos_as_xyz
1 '-y, x, -z+1/2'
2 'y, -x, -z+1/2'
3 'x, y, -z'
4 '-x, -y, -z'
5 'y, -x, z+1/2'
6 '-y, x, z+1/2'
7 '-x, -y, z'
8 'x, y, z'
loop_
_atom_type_symbol
_atom_type_oxidation_number
Cu1+ 1
S2- -2
C1+ 1
H0+ 0
loop_
_atom_site_label
_atom_site_type_symbol
_atom_site_symmetry_multiplicity
_atom_site_Wyckoff_symbol
_atom_site_fract_x
_atom_site_fract_y
_atom_site_fract_z
_atom_site_B_iso_or_equiv
_atom_site_occupancy
_atom_site_attached_hydrogens
Cu1 Cu1+ 4 j 0.074(1) 0.172(1) 0 0.046(3) 1. 0
S1 S2- 4 j -.196(2) 0.187(2) 0 0.023(6) 1. 0
C1 C1+ 4 j -.229(4) 0.402(2) 0 0.186(30) 1. 0
#End of TTdata_41244-ICSD