
#(C) 2017 by FIZ Karlsruhe - Leibniz Institute for Information Infrastructure.  All rights reserved.
data_172907-ICSD
_database_code_ICSD 172907
_audit_creation_date 2008-02-01
_audit_update_record 2012-02-01
_chemical_name_systematic 'Cobalt bis(hydrogencyanamide)'
_chemical_formula_structural 'Co (H N C N)2'
_chemical_formula_sum 'C2 H2 Co1 N4'
_chemical_name_structure_type Ni(HNCN)2
_exptl_crystal_density_diffrn 2.48
_cell_measurement_temperature 293.
_publ_section_title
'Synthesis and structure determination of Co (H N C N)2 and Ni (H N C N)2'
loop_
_citation_id
_citation_journal_full
_citation_year
_citation_journal_volume
_citation_page_first
_citation_page_last
_citation_journal_id_ASTM
primary 'Journal of Solid State Chemistry' 2007 180 307 312 JSSCBI
loop_
_publ_author_name
'Krott, M.'
'Liu Xiao Hui'
'Mueller, P.'
'Dronskowski, R.'
_cell_length_a 6.572(1)
_cell_length_b 8.805(2)
_cell_length_c 3.267(1)
_cell_angle_alpha 90.
_cell_angle_beta 90.
_cell_angle_gamma 90.
_cell_volume 189.05
_cell_formula_units_Z 2
_symmetry_space_group_name_H-M 'P n n m'
_symmetry_Int_Tables_number 58
_refine_ls_R_factor_all 0.012
loop_
_symmetry_equiv_pos_site_id
_symmetry_equiv_pos_as_xyz
1 'x+1/2, -y+1/2, z+1/2'
2 '-x+1/2, y+1/2, z+1/2'
3 'x, y, -z'
4 '-x, -y, -z'
5 '-x+1/2, y+1/2, -z+1/2'
6 'x+1/2, -y+1/2, -z+1/2'
7 '-x, -y, z'
8 'x, y, z'
loop_
_atom_type_symbol
_atom_type_oxidation_number
Co2+ 2
N3- -3
C4+ 4
H1+ 1
loop_
_atom_site_label
_atom_site_type_symbol
_atom_site_symmetry_multiplicity
_atom_site_Wyckoff_symbol
_atom_site_fract_x
_atom_site_fract_y
_atom_site_fract_z
_atom_site_B_iso_or_equiv
_atom_site_occupancy
_atom_site_attached_hydrogens
Co1 Co2+ 2 a 0 0 0 1.9(1) 1. 0
N1 N3- 4 g 0.294(3) 0.525(5) 0 2.5(4) 1. 0
N2 N3- 4 g 0.091(4) 0.769(4) 0 0.4(4) 1. 0
C1 C4+ 4 g 0.816(5) 0.349(4) 0 1.9(2) 1. 0
#End of TTdata_172907-ICSD