
#(C) 2017 by FIZ Karlsruhe - Leibniz Institute for Information Infrastructure.  All rights reserved.
data_250737-ICSD
_database_code_ICSD 250737
_audit_creation_date 2015-02-01
_chemical_name_systematic 'Methylammonium triiodostannate(II)'
_chemical_formula_structural '(C H3 N H3) (Sn I3)'
_chemical_formula_sum 'C1 H6 I3 N1 Sn1'
_exptl_crystal_density_diffrn 3.7
_cell_measurement_temperature 200.
_publ_section_title

;
Semiconducting tin and lead iodide perovskites with organic cations. Phase
transitions, high mobilities, and near-infrared photoluminescent properties
;
loop_
_citation_id
_citation_journal_full
_citation_year
_citation_journal_volume
_citation_page_first
_citation_page_last
_citation_journal_id_ASTM
primary 'Inorganic Chemistry' 2013 52 9019 9038 INOCAJ
loop_
_publ_author_name
'Stoumpos, Constantinos C.'
'Malliakas, Christos D.'
'Kanatzidis, Mercouri G.'
_cell_length_a 8.7577(15)
_cell_length_b 8.7577(15)
_cell_length_c 12.429(3)
_cell_angle_alpha 90.
_cell_angle_beta 90.
_cell_angle_gamma 90.
_cell_volume 953.27
_cell_formula_units_Z 4
_symmetry_space_group_name_H-M 'I 4 c m'
_symmetry_Int_Tables_number 108
_refine_ls_R_factor_all 0.0637
loop_
_symmetry_equiv_pos_site_id
_symmetry_equiv_pos_as_xyz
1 'y+1/2, x+1/2, z'
2 '-y+1/2, -x+1/2, z'
3 'y, -x, z'
4 '-y, x, z'
5 'x+1/2, -y+1/2, z'
6 '-x+1/2, y+1/2, z'
7 '-x, -y, z'
8 'x, y, z'
9 'y, x, z+1/2'
10 '-y, -x, z+1/2'
11 'y+1/2, -x+1/2, z+1/2'
12 '-y+1/2, x+1/2, z+1/2'
13 'x, -y, z+1/2'
14 '-x, y, z+1/2'
15 '-x+1/2, -y+1/2, z+1/2'
16 'x+1/2, y+1/2, z+1/2'
loop_
_atom_type_symbol
_atom_type_oxidation_number
Sn2+ 2
I1- -1
N3- -3
C2- -2
H1+ 1
loop_
_atom_site_label
_atom_site_type_symbol
_atom_site_symmetry_multiplicity
_atom_site_Wyckoff_symbol
_atom_site_fract_x
_atom_site_fract_y
_atom_site_fract_z
_atom_site_B_iso_or_equiv
_atom_site_occupancy
_atom_site_attached_hydrogens
Sn1 Sn2+ 4 a 0. 0. 0.00001(8) 0.02287(15) 1 0
I1 I1- 4 a 0. 0. 0.25406(13) 0.0411(2) 1 0
I2 I1- 8 c 0.21217(5) 0.71217(5) 0.00590(19) 0.04766(13) 1 0
N1 N3- 4 b 0.5 0. 0.1743(12) 0.27(3) 1 0
C1 C2- 4 b 0.5 0. 0.2854(12) 0.17(2) 1 0
loop_
_atom_site_aniso_label
_atom_site_aniso_type_symbol
_atom_site_aniso_U_11
_atom_site_aniso_U_22
_atom_site_aniso_U_33
_atom_site_aniso_U_12
_atom_site_aniso_U_13
_atom_site_aniso_U_23
Sn1 Sn2+ 0.02194(18) 0.02194(18) 0.0247(3) 0. 0. 0.
I1 I1- 0.0507(3) 0.0507(3) 0.0218(3) 0. 0. 0.
I2 I1- 0.04032(15) 0.04032(15) 0.0623(3) 0.0223(2) -0.0156(3) -0.0156(3)
#End of TTdata_250737-ICSD