
#(C) 2017 by FIZ Karlsruhe - Leibniz Institute for Information Infrastructure.  All rights reserved.
data_28439-ICSD
_database_code_ICSD 28439
_audit_creation_date 1980-01-01
_audit_update_record 1985-05-22
_chemical_name_systematic 'Tetraamminecopper thiocyanate'
_chemical_formula_structural 'Cu (N H3)4 (S C N)2'
_chemical_formula_sum 'C2 H12 Cu1 N6 S2'
_exptl_crystal_density_diffrn 1.62
_publ_section_title

;
Structural Features of Crystals of Some Rhodanide Compounds with Divalent
Nickel and Copper
;
loop_
_citation_id
_citation_journal_full
_citation_year
_citation_journal_volume
_citation_page_first
_citation_page_last
_citation_journal_id_ASTM
primary 'Zhurnal Strukturnoi Khimii (Issue-No. from 1981)' 1963 4 584 593 ZSTKAI
loop_
_publ_author_name
'Porai Koshits, M.A.'
_cell_length_a 6.85
_cell_length_b 7.78
_cell_length_c 9.52
_cell_angle_alpha 90.
_cell_angle_beta 90.5
_cell_angle_gamma 90.
_cell_volume 507.33
_cell_formula_units_Z 2
_symmetry_space_group_name_H-M 'I 1 2/m 1'
_symmetry_Int_Tables_number 12
_refine_ls_R_factor_all 0.108
loop_
_symmetry_equiv_pos_site_id
_symmetry_equiv_pos_as_xyz
1 'x, -y, z'
2 '-x, -y, -z'
3 '-x, y, -z'
4 'x, y, z'
5 'x+1/2, -y+1/2, z+1/2'
6 '-x+1/2, -y+1/2, -z+1/2'
7 '-x+1/2, y+1/2, -z+1/2'
8 'x+1/2, y+1/2, z+1/2'
loop_
_atom_type_symbol
_atom_type_oxidation_number
Cu2+ 2
N3- -3
S2- -2
C4+ 4
H1+ 1
loop_
_atom_site_label
_atom_site_type_symbol
_atom_site_symmetry_multiplicity
_atom_site_Wyckoff_symbol
_atom_site_fract_x
_atom_site_fract_y
_atom_site_fract_z
_atom_site_B_iso_or_equiv
_atom_site_occupancy
_atom_site_attached_hydrogens
Cu1 Cu2+ 2 a 0 0 0 . 1. 0
N1 N3- 8 j 0.204 0.18 -.05 . 1. 0
N2 N3- 4 i 0.5165 0 0.26 . 1. 0
S1 S2- 4 i 0.1126 0 0.3041 . 1. 0
C1 C4+ 4 i 0.347 0 0.273 . 1. 0
#End of TTdata_28439-ICSD